c Source: TUDataset PTC_MR, graph #42
c Original: n=10, m=12
c Augmented: +4 edges, n=12 -> m=16, circuit_rank=5
c Augmented to satisfy Eulerian condition (no parallel edges)
p sp 12
e 4 5
e 8 9
e 1 2
e 5 6
e 6 8
e 9 10
e 6 7
e 1 7
e 3 4
e 8 10
e 1 3
e 2 3
e 1 11
e 3 11
e 6 12
e 8 12
